% Instancia problemática tipo: CUELLO_BOTELLA
% Razón: Topología con cuello de botella extremo, solo 1 nodo intermedio
% Demanda total: 10845.26
% Suministro total: 8676.2
% Factor holgura: 0.8

nP = 4;
nT = 1;
nC1 = 6;
nC2 = 10;
nA = 70;
nD = 3;

arc_from = [1, 2, 3, 4, 5, 5, 5, 5, 5, 5, 6, 6, 6, 6, 6, 6, 6, 6, 6, 6, 7, 7, 7, 7, 7, 7, 7, 7, 7, 7, 8, 8, 8, 8, 8, 8, 8, 8, 8, 8, 9, 9, 9, 9, 9, 9, 9, 9, 9, 9, 10, 10, 10, 10, 10, 10, 10, 10, 10, 10, 11, 11, 11, 11, 11, 11, 11, 11, 11, 11];
arc_to = [5, 5, 5, 5, 6, 7, 8, 9, 10, 11, 12, 13, 14, 15, 16, 17, 18, 19, 20, 21, 12, 13, 14, 15, 16, 17, 18, 19, 20, 21, 12, 13, 14, 15, 16, 17, 18, 19, 20, 21, 12, 13, 14, 15, 16, 17, 18, 19, 20, 21, 12, 13, 14, 15, 16, 17, 18, 19, 20, 21, 12, 13, 14, 15, 16, 17, 18, 19, 20, 21];

supply = [2169.05, 2169.05, 2169.05, 2169.05, 0, 0, 0, 0, 0, 0, 0, 0, 0, 0, 0, 0, 0, 0, 0, 0, 0];
demand = [0, 0, 0, 0, 0, 691.83, 507.50, 582.51, 566.96, 720.94, 703.01, 867.65, 626.08, 726.58, 608.94, 665.59, 751.61, 607.96, 659.65, 794.97, 763.48];

max_capacity = [795, 1414, 3181];

install_cost = array2d(1..nA, 1..nD, [
  20, 24, 32,
  50, 62, 78,
  20, 24, 32,
  50, 62, 78,
  20, 24, 32,
  50, 62, 78,
  20, 24, 32,
  50, 62, 78,
  20, 24, 32,
  50, 62, 78,
  20, 24, 32,
  50, 62, 78,
  20, 24, 32,
  50, 62, 78,
  20, 24, 32,
  50, 62, 78,
  20, 24, 32,
  50, 62, 78,
  20, 24, 32,
  50, 62, 78,
  20, 24, 32,
  50, 62, 78,
  20, 24, 32,
  50, 62, 78,
  20, 24, 32,
  50, 62, 78,
  20, 24, 32,
  50, 62, 78,
  20, 24, 32,
  50, 62, 78,
  20, 24, 32,
  50, 62, 78,
  20, 24, 32,
  50, 62, 78,
  20, 24, 32,
  50, 62, 78,
  20, 24, 32,
  50, 62, 78,
  20, 24, 32,
  50, 62, 78,
  20, 24, 32,
  50, 62, 78,
  20, 24, 32,
  50, 62, 78,
  20, 24, 32,
  50, 62, 78,
  20, 24, 32,
  50, 62, 78,
  20, 24, 32,
  50, 62, 78,
  20, 24, 32,
  50, 62, 78,
  20, 24, 32,
  50, 62, 78,
  20, 24, 32,
  50, 62, 78,
  20, 24, 32,
  50, 62, 78,
  20, 24, 32,
  50, 62, 78,
  20, 24, 32,
  50, 62, 78,
  20, 24, 32,
  50, 62, 78,
  20, 24, 32,
  50, 62, 78,
  20, 24, 32,
  50, 62, 78,
  20, 24, 32,
  50, 62, 78
]);

trans_cost = [5.03, 6.30, 8.30, 6.49, 3.35, 8.21, 4.81, 9.42, 5.24, 12.65, 5.65, 7.03, 10.44, 4.31, 8.68, 11.92, 3.18, 8.55, 8.78, 10.35, 4.29, 4.04, 9.57, 8.89, 8.75, 9.04, 5.96, 8.70, 8.88, 5.86, 13.60, 9.42, 4.43, 9.97, 5.08, 10.36, 11.48, 5.54, 10.89, 9.24, 10.47, 13.69, 7.26, 5.74, 5.33, 5.55, 7.77, 9.02, 8.83, 10.48, 8.04, 12.36, 7.21, 16.16, 9.88, 5.43, 4.79, 9.45, 7.33, 10.14, 9.42, 7.78, 5.46, 3.46, 6.66, 10.57, 8.64, 4.26, 8.52, 9.16];
